
Gurobi 9.5.0 (win64) logging started Tue Jun 28 17:09:00 2022

Set parameter LogFile to value "C:\Users\kmajd1\Documents\NNRepLayer_v2\demos\walking_example\dynamic_constraint\repair_net/logs/opt_log_6_28_2022_17_7_30.log"
Gurobi Optimizer version 9.5.0 build v9.5.0rc5 (win64)
Thread count: 8 physical cores, 16 logical processors, using up to 16 threads
Optimize a model with 73099 rows, 47695 columns and 211083 nonzeros
Model fingerprint: 0x46f1e9db
Model has 270 quadratic objective terms
Variable types: 20719 continuous, 26976 integer (26976 binary)
Coefficient statistics:
  Matrix range     [7e-04, 5e+01]
  Objective range  [9e-03, 2e+00]
  QObjective range [7e-02, 7e-02]
  Bounds range     [1e+00, 5e+01]
  RHS range        [2e-04, 5e+01]
Presolve removed 44156 rows and 17824 columns
Presolve time: 0.74s
Presolved: 28943 rows, 29871 columns, 140207 nonzeros
Presolved model has 270 quadratic objective terms
Variable types: 20303 continuous, 9568 integer (9568 binary)
Root relaxation presolve removed 10432 rows and 9568 columns
Root relaxation presolved: 18511 rows, 20303 columns, 119343 nonzeros
Root relaxation presolved model has 270 quadratic objective terms


Root simplex log...

Iteration    Objective       Primal Inf.    Dual Inf.      Time
   27271    2.7587382e+01   1.639015e+04   0.000000e+00      5s
   49696    2.7229667e+01   1.290340e+04   0.000000e+00     10s
   67802    2.6656072e+01   9.048307e+03   0.000000e+00     15s
Warning: 1 variables dropped from basis
   87422    2.4603706e+01   1.964519e+04   0.000000e+00     20s
  100188    2.4857605e+01   8.879999e+04   0.000000e+00     25s
  111113    2.4916864e+01   8.180960e+02   0.000000e+00     30s
  122495    2.4926504e+01   1.887356e+03   0.000000e+00     35s
  132772    1.2929746e+01   4.851340e+03   0.000000e+00     40s
  142867    1.2962161e+01   2.872921e+04   0.000000e+00     45s
  152976    1.2990147e+01   1.278722e+03   0.000000e+00     50s
  163134    1.3018979e+01   1.337646e+04   0.000000e+00     55s
  173173    1.3044868e+01   8.770395e+02   0.000000e+00     60s
  184075    1.3076959e+01   8.266960e+02   0.000000e+00     65s
  194498    1.3106102e+01   1.696842e+03   0.000000e+00     70s
  206011    1.3149817e+01   2.622151e+03   0.000000e+00     75s
  217441    1.3205071e+01   1.376061e+05   0.000000e+00     80s
  228327    1.3264627e+01   2.462764e+03   0.000000e+00     85s
  240119    1.3347668e+01   6.588344e+03   0.000000e+00     90s
  252259    1.3456776e+01   2.235059e+03   0.000000e+00     95s
  265215    1.3623436e+01   4.790280e+03   0.000000e+00    100s
  278792    1.3842202e+01   7.738398e+02   0.000000e+00    105s
  293978    1.4238760e+01   8.965853e+03   0.000000e+00    110s
  310573    1.5081710e+01   5.499601e+04   0.000000e+00    115s
  343978    2.7587382e+01   0.000000e+00   0.000000e+00    120s
  343978    2.7587382e+01   0.000000e+00   0.000000e+00    120s

Root relaxation: objective 2.758738e+01, 343978 iterations, 118.74 seconds (231.01 work units)

    Nodes    |    Current Node    |     Objective Bounds      |     Work
 Expl Unexpl |  Obj  Depth IntInf | Incumbent    BestBd   Gap | It/Node Time

     0     0   27.58738    0 2672          -   27.58738      -     -  136s
     0     0   27.58738    0 3168          -   27.58738      -     -  390s
     0     0   27.58738    0 2613          -   27.58738      -     -  391s
     0     0   27.69489    0 2092          -   27.69489      -     -  392s
     0     0   27.73277    0 1557          -   27.73277      -     -  394s
     0     0   28.45771    0 1060          -   28.45771      -     -  400s
     0     0   28.45771    0  693          -   28.45771      -     -  403s
     0     0   28.89647    0  576          -   28.89647      -     -  409s
     0     0   29.00492    0  489          -   29.00492      -     -  413s
     0     0   29.00492    0  490          -   29.00492      -     -  413s
     0     0   29.05906    0  560          -   29.05906      -     -  419s
     0     0   29.06989    0  548          -   29.06989      -     -  426s
     0     0   29.06989    0  568          -   29.06989      -     -  427s
     0     0   29.40087    0  460          -   29.40087      -     -  436s
     0     0   29.42146    0  572          -   29.42146      -     -  439s
     0     0   29.42536    0  585          -   29.42536      -     -  439s
     0     0   29.42536    0  592          -   29.42536      -     -  440s
     0     0   29.61351    0  784          -   29.61351      -     -  449s
     0     0   29.78172    0  668          -   29.78172      -     -  455s
     0     0   29.78892    0  725          -   29.78892      -     -  456s
     0     0   29.78906    0  746          -   29.78906      -     -  456s
     0     0   30.38989    0  631          -   30.38989      -     -  466s
     0     0   30.46386    0  704          -   30.46386      -     -  471s
     0     0   30.49294    0  694          -   30.49294      -     -  472s
     0     0   30.49546    0  728          -   30.49546      -     -  473s
     0     0   30.60382    0  670          -   30.60382      -     -  480s
     0     0   30.66580    0  792          -   30.66580      -     -  485s
     0     0   30.68093    0  812          -   30.68093      -     -  486s
     0     0   30.68228    0  906          -   30.68228      -     -  486s
     0     0   31.02010    0  799          -   31.02010      -     -  494s
     0     0   31.03385    0  831          -   31.03385      -     -  500s
     0     0   31.03481    0  868          -   31.03481      -     -  500s
     0     0   31.22978    0  677          -   31.22978      -     -  509s
     0     0   31.23582    0  729          -   31.23582      -     -  513s
     0     0   31.23689    0  747          -   31.23689      -     -  514s
     0     0   31.34994    0  820          -   31.34994      -     -  521s
     0     0   31.35759    0  792          -   31.35759      -     -  527s
     0     0   31.36511    0  799          -   31.36511      -     -  528s
     0     0   31.36887    0  848          -   31.36887      -     -  528s
     0     0   31.36982    0  856          -   31.36982      -     -  528s
     0     0   31.44593    0  861          -   31.44593      -     -  536s
     0     0   31.45467    0  888          -   31.45467      -     -  543s
     0     0   31.49925    0  869          -   31.49925      -     -  544s
     0     0   31.53501    0  831          -   31.53501      -     -  544s
     0     0   31.53526    0  926          -   31.53526      -     -  545s
     0     0   31.61146    0  842          -   31.61146      -     -  554s
     0     0   31.62463    0  875          -   31.62463      -     -  558s
     0     0   31.63210    0  872          -   31.63210      -     -  558s
     0     0   31.63459    0  903          -   31.63459      -     -  559s
     0     0   31.64354    0  914          -   31.64354      -     -  566s
     0     2   31.64354    0  914          -   31.64354      -     -  899s
     1     4   31.83637    1  854          -   31.64363      -  2970  905s
     7    16   32.86532    3  953          -   31.78292      -  1502  910s
    15    24   33.08803    4 1024          -   31.78341      -  1129  918s
    23    32   33.09506    5 1041          -   31.80124      -  1143  921s
    39    48   33.10405    7 1065          -   31.80895      -  1136  925s
    73    88   33.19772   10 1038          -   31.80913      -   830  931s
   102   119   33.25238   12 1006          -   31.80913      -   710  935s
   156   176   33.49471   20  914          -   31.80913      -   554  941s
   196   225   33.50288   25  899          -   31.80913      -   535  950s
   224   243   33.53906   30  863          -   31.80913      -   513  955s
   242   265   33.77877   32  815          -   31.80913      -   588  960s
   330   377   33.80966   53  775          -   31.80913      -   507  966s
   399   427   34.22812   57  871          -   31.80913      -   476  972s
   426   475   33.98735   59  847          -   31.80913      -   480  975s
   503   536   34.19599   69  756          -   31.80913      -   458  980s
   569   620   34.57822   75  785          -   31.80913      -   458  985s
   660   698   34.78042   84  679          -   31.80913      -   438  990s
   768   836   34.96001   97  719          -   31.80913      -   423  997s
   898   948   33.76719   76  596          -   31.80913      -   398 1000s
  1011  1091   35.28574  123  705          -   31.80913      -   375 1008s
  1090  1173   35.47691  133  730          -   31.80913      -   362 1012s
  1172  1277   35.78805  150  734          -   31.80913      -   352 1015s

Cutting planes:
  Gomory: 224
  MIR: 4095
  Flow cover: 4116
  Relax-and-lift: 51

Explored 1330 nodes (1382125 simplex iterations) in 1017.52 seconds (1552.86 work units)
Thread count was 16 (of 16 available processors)

Solution count 0

Solve interrupted
Best objective -, best bound 3.180912835889e+01, gap -
